data;

param n:=30;
param p:=3;
param r:=[1] 0 [2] 2 [3] 0 [4] 0 [5] 6 [6] 11 [7] 6 [8] 6 [9] 1 [10] 25 [11] 1 [12] 23 [13] 31 [14] 10 [15] 2 [16] 10 [17] 21 [18] 26 [19] 42 [20] 9 [21] 35 [22] 40 [23] 54 [24] 24 [25] 60 [26] 56 [27] 74 [28] 17 [29] 48 [30] 68 ;
param w:=[1] 90 [2] 62 [3] 25 [4] 2 [5] 80 [6] 66 [7] 84 [8] 87 [9] 82 [10] 71 [11] 1 [12] 55 [13] 17 [14] 5 [15] 74 [16] 35 [17] 49 [18] 28 [19] 89 [20] 38 [21] 8 [22] 12 [23] 41 [24] 48 [25] 41 [26] 63 [27] 57 [28] 96 [29] 99 [30] 62 ;

end;
